%%% static parameters %%%
timespan = 1;
Fact = [4];
Distr1 = [15];
Distr2 = [30];
Clients_N = [300];
Demand_W = [15];
Lt0 = [4];
Lt1 = [4];
SS_ = [0.85];
DS_D = [8];
K = [200];
MA = [500];
%%% dynamic parameters %%%
lost_ratio_sales_ret_th = 0.31352824568611326;
lost_ratio_sales_ret_w = 3;
lost_ratio_sales_dis_th = 0.757165624416224;
lost_ratio_sales_dis_w = 35;
lost_ratio_sales_fac_th = 0.4098951783892074;
lost_ratio_sales_fac_w = 56;
stock_customer_MA_mean_relative_th = 0.9779855057037019;
stock_customer_MA_mean_relative_w = 35;
stock_distributor_MA_mean_relative_th = 0.8336362422077558;
stock_distributor_MA_mean_relative_w = 23;
stock_retailer_MA_mean_relative_th = 0.42622121181329886;
stock_retailer_MA_mean_relative_w = 5;
stock_factory_MA_mean_relative_th = 0.7990082558818967;
stock_factory_MA_mean_relative_w = 2;
